134
1000
232
124
160
21
65
210
41
63
93
35
218
230
124
53
161
124
15
187
68
229
66
30
21
100
28
214
199
203
227
45
16
242
10
124
51
150
8
224
48
118
176
36
21
139
30
160
173
161
246
18
81
244
161
210
130
118
125
218
19
56
122
20
226
248
193
24
73
1
102
126
90
64
197
230
80
1
64
107
59
31
245
240
90
31
199
143
203
192
86
139
197
179
169
75
30
94
182
163
13
229
34
146
87
50
2
25
99
174
72
83
54
151
42
68
39
133
33
58
144
106
120
217
7
18
247
80
68
99
180
7
108
111
30
52
